Traveling Salesman Problem/TSP_generados/Aleatorio1621103268_7.tsp
NAME: Aleatorio1621103268_7.tsp
COMMENT: Randomly generated scenario
TYPE: TSP
DIMENSION: 7
EDGE_WEIGHT_TYPE: ATT
NODE_COORD_SECTION
1 45.23 47.84
2 9.55 2.52
3 15.43 6.9
4 0.51 14.28
5 10.37 12.73
6 6.38 35.02
7 24.12 36.05
