Traveling Salesman Problem/TSP_generados/Aleatorio1621103268_7.opt.tour
NAME: Aleatorio1621103268_7.opt.tour
COMMENT: Optimal solution for Aleatorio1621103268_7 (141.6969919310101)
TYPE: TOUR
DIMENSION: 7
TOUR_SECTION
1 3 2 5 4 6 7
-1
EOF
